29891
24151
23945
23566
23342
23400
23458
23516
22705
22763
22821
22879
22705
22763
22705
22705
22763
22705
22705
22593
22593
22593
22522
22522
22522
22410
22410
22410
22367
22357
22357
22357
22357
22357
22357
22357
22357
22357
22357
22357
22357
22357
22357
22357
22357
22357
22357
22357
22357
22357
22357
22357
22357
22357
22357
22357
22357
22357
22357
22357
22357
22357
22357
22357
22357
22357
22357
22357
22357
22357
22357
22357
22357
22357
22357
22357
22357
22357
22357
22357
22357
22357
22357
22357
22357
22357
22357
22357
22357
22357
22357
22357
22357
22357
22357
22357
22357
22357
22357
22357
22357
22357
22357
22357
22357
22357
22357
22357
22357
22357
22357
22357
22357
22357
22357
22357
22357
22357
22357
22357
22357
22357
22357
22357
22357
22357
22357
22357
22357
22357
22357
22357
22357
22357
22357
22357
22357
22357
22357
22357
22357
22357
22357
22357
22357
22357
22357
22357
22357
22357
22357
22357
22357
22357
22357
22357
22357
22357
22357
22357
22357
22357
22357
22357
22357
22357
22357
22357
22357
22357
22357
22357
22357
22357
22357
22357
22357
22357
22357
22357
22357
22357
22357
22357
22357
22357
22357
22357
22357
22357
22357
22357
22357
22357
22357
22357
22357
22357
22357
22357
22357
22357
22357
22357
22357
22357
22357
22357
22357
22357
22357
22357
22357
22357
22357
22357
22357
22357
22357
22357
22357
22357
22357
22357
22357
22357
22357
22357
22357
22357
22357
22357
22357
22357
22357
22357
22357
22357
22357
22357
22357
22357
22357
22357
22357
22357
22357
22357
22357
22357
22357
22357
22357
22357
22357
22357
22357
22357
22357
22357
22357
22357
22357
22357
22357
22357
22357
22357
22357
22357
22357
22357
22357
22357
22357
22357
22357
22357
22357
22357
22357
22357
22357
22357
22357
22357
22357
22357
22357
22357
22357
22357
22357
22357
22357
22357
22357
22357
22357
22357
22357
22357
22357
22357
22357
22357
22357
22357
22357
22357
22357
22357
22357
22357
22357
22357
22357
22357
22357
22357
22357
22357
22357
22357
22357
22357
22357
22357
22357
22357
22357
22357
22357
22357
22357
22357
22357
22357
22357
22357
22357
22357
22357
22357
22357
22357
22357
22357
22357
22357
22357
22357
22357
22357
22357
22357
22357
22357
22357
22357
22357
22357
22357
22357
22357
22357
22357
22357
22357
22357
22357
22357
22357
22357
22357
22357
22357
22357
22357
22357
22357
22357
22357
22357
22357
22357
22357
22357
22357
22357
22357
22357
22357
22357
22357
22357
22357
22357
22357
22357
22357
22357
22357
22357
22357
22357
22357
22357
22357
22357
22357
22357
22357
22357
22357
22357
22357
22357
22357
22357
22357
22357
22357
22357
22357
22357
22357
22357
22357
22357
22357
22357
22357
22357
22357
22357
22357
22357
22357
22357
22357
22357
22357
22357
22357
22357
22357
22357
22357
22357
22357
22357
22357
22357
22357
22357
22357
22357
22357
22357
22357
22357
22357
22357
22357
22357
22357
22357
22357
22357
22357
22357
22357
22357
22357
22357
22357
22357
22357
22357
22357
22357
22357
22357
22357
22357
22357
22357
22357
22357
22357
22357
22357
22357
22357
22357
22357
22357
22357
22357
22357
22357
22357
22357
22357
22357
22357
22357
22357
22357
22357
22357
22357
22357
22357
22357
22357
22357
22357
22357
22357
22357
22357
22357
22357
22357
22357
22357
22357
22357
22357
22357
22357
22357
22357
22357
22357
22357
22357
22357
22357
22357
22357
22357
22357
22357
22357
22357
22357
22357
22357
22357
22357
22357
22357
22357
22357
22357
22357
22357
22357
22357
22357
22357
22357
22357
22357
22357
22357
22357
22357
22357
22357
22357
22357
22357
22357
22357
22357
22357
22357
22357
22357
22357
22357
22357
22357
22357
22357
22357
22357
22357
22357
22357
22357
22357
22357
22357
22357
22357
22357
22357
22357
22357
22357
22357
22357
22357
22357
22357
22357
22357
22357
22357
22357
22357
22357
22357
22357
22357
22357
22357
22357
22357
22357
22357
22357
22357
22357
22357
22357
22357
22357
22357
22357
22357
22357
22357
22357
22357
22357
22357
22357
22357
22357
22357
22357
22357
22357
22357
22357
22357
22357
22357
22357
22357
22357
22357
22357
22357
22357
22357
22357
22357
22357
22357
22357
22357
22357
22357
22357
22357
22357
22357
22357
22357
22357
22357
22357
22357
22357
22357
22357
22357
22357
22357
22357
22357
22357
22357
22357
22357
22357
22357
22357
22357
22357
22357
22357
22357
22357
22357
22357
22357
22357
22357
22357
22357
22357
22357
22357
22357
22357
22357
22357
22357
22357
22357
22357
22357
22357
22357
22357
22357
22357
22357
22357
22357
22357
22357
22357
22357
22357
22357
22357
22357
22357
22357
22357
22357
22357
22357
22357
22357
22357
22357
22357
22357
22357
22357
22357
22357
22357
22357
22357
22357
22357
22357
22357
22357
22357
22357
22357
22357
22357
22357
22357
22357
22357
22357
22357
22357
22357
22357
22357
22357
22357
22357
22357
22357
22357
22357
22357
22357
22357
22357
22357
22357
22357
22357
22357
22357
22357
22357
22357
22357
22357
22357
22357
22357
22357
22357
22357
22357
22357
22357
22357
22357
22357
22357
22357
22357
22357
22357
22357
22357
22357
22357
22357
22357
22357
22357
22357
22357
22357
22357
22357
22357
22357
22357
22357
22357
22357
22357
22357
22357
22357
22357
22357
22357
22357
22357
22357
22357
22357
22357
22357
22357
22357
22357
22357
22357
22357
22357
22357
22357
22357
22357
22357
22357
22357
22357
22357
22357
22357
22357
22357
22357
22357
22357
22357
22357
22357
22357
22357
22357
22357
22357
22357
22357
22357
22357
22357
22357
22357
22357
22357
22357
22357
22357
22357
22357
22357
22357
22357
22357
22357
22357
22357
22357
22357
22357
22357
22357
22357
22357
22357
22357
22357
22357
22357
22357
22357
22357
22357
22357
22357
22357
22357
22357
22357
22357
22357
22357
22357
22357
22357
22357
22357
22357
22357
22357
22357
22357
22357
22357
22357
22357
22357
22357
22357
22357
22357
22357
22357
22357
22357
22357
22357
22357
22357
22357
22357
22357
22357
22357
22357
22357
22357
22357
22357
22357
22357
22357
22357
22357
22357
22357
22357
22357
22357
22357
22357
22357
22357
22357
22357
22357
22357
22357
22357
22357
22357
22357
22357
22357
22357
22357
22357
22357
22357
22357
22357
22357
22357
22357
22357
22357
22357
22357
22357
